50
750
523
518
509
509
505
505
502
483
474
464
460
446
436
415
403
394
390
386
383
376
375
367
361
353
343
338
323
323
313
311
311
291
281
275
272
270
266
229
222
213
205
183
181
172
167
164
163
157
157
151
